solution status: optimal solution found
objective value:                     176199.332104993
d11(0,0)                                            1 	(obj:0)
d11(1,1)                                            1 	(obj:0)
d11(1,2)                                            1 	(obj:0)
d11(2,5)                                            1 	(obj:0)
d11(3,7)                                            1 	(obj:0)
d11(3,8)                                            1 	(obj:0)
d11(3,9)                                            1 	(obj:0)
d11(3,11)                                           1 	(obj:0)
d11(3,12)                                           1 	(obj:0)
d11(3,13)                                           1 	(obj:0)
d11(3,14)                                           1 	(obj:0)
d11(4,15)                                           1 	(obj:0)
d11(4,17)                                           1 	(obj:0)
d11(4,19)                                           1 	(obj:0)
d11(4,21)                                           1 	(obj:0)
d11(4,23)                                           1 	(obj:0)
d11(4,25)                                           1 	(obj:0)
d11(4,27)                                           1 	(obj:0)
d11(4,29)                                           1 	(obj:0)
d12(2,4)                                            1 	(obj:0)
d12(2,6)                                            1 	(obj:0)
d12(4,16)                                           1 	(obj:0)
d12(4,18)                                           1 	(obj:0)
d12(4,20)                                           1 	(obj:0)
d12(4,22)                                           1 	(obj:0)
d12(4,24)                                           1 	(obj:0)
d12(4,26)                                           1 	(obj:0)
d12(4,28)                                           1 	(obj:0)
d12(4,30)                                           1 	(obj:0)
d21(2,3)                                            1 	(obj:0)
d21(3,7)                                            1 	(obj:0)
d21(3,8)                                            1 	(obj:0)
d21(3,9)                                            1 	(obj:0)
d21(3,11)                                           1 	(obj:0)
d21(4,15)                                           1 	(obj:0)
d21(4,16)                                           1 	(obj:0)
d21(4,17)                                           1 	(obj:0)
d21(4,19)                                           1 	(obj:0)
d21(4,20)                                           1 	(obj:0)
d21(4,23)                                           1 	(obj:0)
y2(4,16)                             1332.83082692375 	(obj:0)
y2(4,18)                             1332.83082692375 	(obj:0)
y2(4,20)                             1332.83082692375 	(obj:0)
y2(4,22)                             1332.83082692375 	(obj:0)
y2(4,24)                             1332.83082692375 	(obj:0)
y2(4,26)                             1332.83082692375 	(obj:0)
y2(4,28)                             1332.83082692375 	(obj:0)
y2(4,30)                             1332.83082692375 	(obj:0)
STE(1,1)                                       1417.5 	(obj:0)
STE(0,0)                                         7875 	(obj:0)
STE(1,2)                             3075.74989888882 	(obj:0)
STE(2,3)                                        787.5 	(obj:0)
STE(2,4)                             2103.71408587651 	(obj:0)
STE(2,5)                             2445.74989888886 	(obj:0)
STE(2,6)                             3761.96398476532 	(obj:0)
STE(3,7)                            -1500.74989888879 	(obj:0)
STE(3,8)                             157.500000000029 	(obj:0)
STE(3,9)                            -184.535813012283 	(obj:0)
STE(3,10)                            1473.71408587651 	(obj:0)
STE(3,11)                            157.500000000071 	(obj:0)
STE(3,12)                            1815.74989888886 	(obj:0)
STE(3,13)                            1473.71408587653 	(obj:0)
STE(3,14)                            3131.96398476532 	(obj:0)
STE(4,15)                           -2186.96398476533 	(obj:0)
STE(4,16)                           -864.560613311224 	(obj:0)
STE(4,17)                           -528.714085876528 	(obj:0)
STE(4,18)                            793.689285577593 	(obj:0)
STE(4,19)                           -870.749898888888 	(obj:0)
STE(4,20)                            451.653472565282 	(obj:0)
STE(4,21)                            787.499999999909 	(obj:0)
STE(4,22)                            2109.90337145407 	(obj:0)
STE(4,23)                           -528.714085876534 	(obj:0)
STE(4,24)                            793.689285577636 	(obj:0)
STE(4,25)                            1129.53581301226 	(obj:0)
STE(4,26)                            2451.93918446642 	(obj:0)
STE(4,27)                                       787.5 	(obj:0)
STE(4,28)                             2109.9033714541 	(obj:0)
STE(4,29)                            2445.74989888879 	(obj:0)
STE(4,30)                            3768.15327034289 	(obj:0)
y1(3,11)                             1492.42490899991 	(obj:0)
y1(3,13)                             1492.42490899991 	(obj:0)
y1(4,15)                             50.5926772888886 	(obj:0)
y1(4,17)                             50.5926772889013 	(obj:0)
y1(4,19)                             50.5926772889449 	(obj:0)
y1(4,21)                             50.5926772889378 	(obj:0)
y1(4,23)                             50.5926772889449 	(obj:0)
y1(4,25)                             50.5926772889378 	(obj:0)
y1(4,27)                             50.5926772888806 	(obj:0)
y1(4,29)                             50.5926772888806 	(obj:0)
AVE(1)                               3265.91696791192 	(obj:0)
WB(2)                                3332.74178563731 	(obj:0)
AVE(2)                               3332.74178563731 	(obj:0)
AVE(3)                               3444.11697932125 	(obj:0)
WB(4)                                3399.56511093778 	(obj:0)
AVE(4)                               3399.56511093778 	(obj:0)
WG(1)                                 3265.9169679118 	(obj:10)
WG(3)                                3444.11697932125 	(obj:10)
BG(1)                                4759.27868514947 	(obj:10)
BG(2)                                2673.40993877551 	(obj:10)
BG(3)                                752.175519658289 	(obj:10)
BG(4)                                2725.03511968257 	(obj:10)
y1(1,1)                                       5244.75 	(obj:0)
y1(1,2)                              3752.32509100006 	(obj:0)
y1(3,7)                              1492.42490899991 	(obj:0)
y1(3,9)                              1492.42490899991 	(obj:0)
y2(2,4)                              1385.48851144895 	(obj:0)
y2(2,6)                              1385.48851144895 	(obj:0)
